c FILE /home/rafael/Documents/HappySet/MIHS/inputs/happygen/output/graph_d_regular_k3_p0.4_v50_20241127_082604.txt
c SOURCE This is a d-regular graph formed for the happy graph colouring problem.
c DESCRIPTION It was generated using the problem generator of Rhyd Lewis
c
c GRAPH STATS
c Seed                             = 1150057993
c Number of Nodes                  = 50
c Number of colours k              = 3
c Number of pre-assignments        = 20
c Degree of all vertices           = 6
c Density                          = 0.122449
c 
c The degrees of nodes 1 to 50, respectively, are as follows 
c [6, 6, 6, 6, 6, 6, 6, 6, 6, 6, 6, 6, 6, 6, 6, 6, 6, 6, 6, 6, 6, 6, 6, 6, 6, 6, 
c  6, 6, 6, 6, 6, 6, 6, 6, 6, 6, 6, 6, 6, 6, 6, 6, 6, 6, 6, 6, 6, 6, 6, 6] 
c  
p edge 50 150 3
e 1 18
e 1 28
e 1 29
e 1 31
e 1 39
e 1 49
e 2 11
e 2 22
e 2 31
e 2 35
e 2 39
e 2 48
e 3 11
e 3 28
e 3 36
e 3 41
e 3 45
e 3 46
e 4 6
e 4 13
e 4 17
e 4 33
e 4 36
e 4 49
e 5 12
e 5 22
e 5 24
e 5 36
e 5 42
e 5 49
e 6 12
e 6 21
e 6 38
e 6 44
e 6 50
e 7 8
e 7 19
e 7 29
e 7 30
e 7 31
e 7 47
e 8 14
e 8 18
e 8 28
e 8 38
e 8 44
e 9 18
e 9 29
e 9 30
e 9 32
e 9 37
e 9 46
e 10 26
e 10 27
e 10 29
e 10 30
e 10 35
e 10 43
e 11 12
e 11 14
e 11 16
e 11 18
e 12 31
e 12 47
e 12 50
e 13 23
e 13 34
e 13 40
e 13 41
e 13 43
e 14 21
e 14 23
e 14 29
e 14 47
e 15 20
e 15 22
e 15 37
e 15 45
e 15 48
e 15 49
e 16 19
e 16 23
e 16 24
e 16 26
e 16 28
e 17 19
e 17 32
e 17 33
e 17 34
e 17 47
e 18 20
e 18 21
e 19 30
e 19 39
e 19 40
e 20 26
e 20 31
e 20 37
e 20 39
e 21 27
e 21 40
e 21 46
e 22 33
e 22 38
e 22 50
e 23 24
e 23 43
e 23 50
e 24 26
e 24 31
e 24 40
e 25 36
e 25 38
e 25 40
e 25 41
e 25 43
e 25 44
e 26 35
e 26 39
e 27 34
e 27 35
e 27 42
e 27 43
e 28 39
e 28 43
e 29 41
e 30 36
e 30 42
e 32 33
e 32 37
e 32 38
e 32 47
e 33 41
e 33 49
e 34 37
e 34 44
e 34 45
e 35 36
e 35 47
e 37 44
e 38 45
e 40 49
e 41 46
e 42 45
e 42 46
e 42 50
e 44 48
e 45 48
e 46 48
e 48 50
n 2 1
n 3 1
n 8 1
n 10 2
n 12 3
n 13 2
n 16 2
n 17 1
n 18 1
n 20 1
n 21 1
n 22 1
n 23 2
n 25 2
n 30 2
n 33 1
n 39 1
n 43 2
n 45 1
n 46 1
